20 10
70 65 60 73 55 64 48 54 67 66
51 73 80 69 77 77 64 78 58 77
48 56 52 59 68 72 42 48 63 52
88 83 94 88 90 94 92 92 91 94
80 64 65 80 80 75 80 79 72 76
65 81 61 72 72 63 57 72 70 54
92 92 81 93 97 91 94 93 94 98
6 28 21 23 24 14 19 35 15 12
12 4 4 6 9 6 6 4 6 4
60 59 41 59 53 64 46 43 50 53
29 16 22 19 15 30 21 21 15 13
34 43 30 34 29 29 46 44 30 58
39 79 65 78 66 62 69 50 84 64
72 79 75 82 52 59 79 51 74 88
20 35 35 41 17 24 33 44 37 33
83 77 72 74 81 71 66 60 78 83
79 63 62 62 78 61 79 56 65 71
75 77 84 83 82 88 75 66 87 74
16 16 11 24 16 24 23 10 23 18
90 92 92 89 88 92 94 87 87 96
